p cnf 83 706
-68 -15 0
15 68 0
-28 -15 0
-28 -17 0
-28 -9 0
15 17 9 28 0
-29 -15 0
-29 -17 0
-29 -13 0
-29 -11 0
-29 -9 0
-29 -7 0
-29 -5 0
-29 -3 0
-29 -1 0
15 17 13 11 9 7 5 3 1 29 0
-16 15 0
-15 16 0
-30 15 0
-30 17 0
-15 -17 30 0
-31 15 0
-31 13 0
-15 -13 31 0
-32 15 0
-32 11 0
-15 -11 32 0
-33 15 0
-33 9 0
-15 -9 33 0
-34 15 0
-34 7 0
-15 -7 34 0
-35 15 0
-35 5 0
-15 -5 35 0
-36 15 0
-36 3 0
-15 -3 36 0
-37 15 0
-37 1 0
-15 -1 37 0
-18 17 0
-17 18 0
-38 17 0
-38 13 0
-17 -13 38 0
-39 17 0
-39 11 0
-17 -11 39 0
-40 17 0
-40 9 0
-17 -9 40 0
-41 17 0
-41 7 0
-17 -7 41 0
-42 17 0
-42 5 0
-17 -5 42 0
-43 17 0
-43 3 0
-17 -3 43 0
-44 17 0
-44 1 0
-17 -1 44 0
-19 9 0
-9 19 0
-45 9 0
-45 7 0
-9 -7 45 0
-46 9 0
-46 5 0
-9 -5 46 0
-47 9 0
-47 3 0
-9 -3 47 0
-48 9 0
-48 1 0
-9 -1 48 0
-20 13 0
-13 20 0
-49 13 0
-49 11 0
-13 -11 49 0
-50 13 0
-50 9 0
-13 -9 50 0
-51 13 0
-51 7 0
-13 -7 51 0
-52 13 0
-52 5 0
-13 -5 52 0
-53 13 0
-53 3 0
-13 -3 53 0
-54 13 0
-54 1 0
-13 -1 54 0
-21 11 0
-11 21 0
-55 11 0
-55 9 0
-11 -9 55 0
-56 11 0
-56 7 0
-11 -7 56 0
-57 11 0
-57 5 0
-11 -5 57 0
-58 11 0
-58 3 0
-11 -3 58 0
-59 11 0
-59 1 0
-11 -1 59 0
-22 7 0
-7 22 0
-60 7 0
-60 5 0
-7 -5 60 0
-61 7 0
-61 3 0
-7 -3 61 0
-62 7 0
-62 1 0
-7 -1 62 0
-23 5 0
-5 23 0
-63 5 0
-63 3 0
-5 -3 63 0
-64 5 0
-64 1 0
-5 -1 64 0
-24 3 0
-3 24 0
-65 3 0
-65 1 0
-3 -1 65 0
-25 1 0
-1 25 0
-73 -17 0
17 73 0
-81 -13 0
13 81 0
-79 -11 0
11 79 0
-77 -9 0
9 77 0
-83 -7 0
7 83 0
-75 -5 0
5 75 0
-71 -3 0
3 71 0
-69 -1 0
1 69 0
-27 15 0
-15 27 0
-66 -15 0
15 66 0
-26 17 0
-17 26 0
-72 -17 0
17 72 0
-14 13 0
-13 14 0
-80 -13 0
13 80 0
-12 11 0
-11 12 0
-78 -11 0
11 78 0
-10 9 0
-9 10 0
-76 -9 0
9 76 0
-8 7 0
-7 8 0
-82 -7 0
7 82 0
-6 5 0
-5 6 0
-74 -5 0
5 74 0
-4 3 0
-3 4 0
-70 -3 0
3 70 0
-2 1 0
-1 2 0
-67 -1 0
1 67 0
2 4 6 8 10 12 14 16 18 19 20 21 22 23 24 25 26 27 0
2 4 6 8 28 29 10 30 31 32 33 34 35 36 37 38 39 40 41 42 43 44 45 46 47 48 49 50 51 52 53 54 55 56 57 58 59 60 61 62 63 64 65 12 14 26 66 0
67 4 6 8 68 10 12 14 26 66 69 0
67 4 6 8 10 12 16 18 19 14 26 27 0
67 70 6 8 10 12 14 26 66 69 71 0
67 70 6 8 10 12 14 72 66 69 71 0
67 4 6 8 68 10 12 14 72 66 73 0
2 70 6 8 68 10 12 14 72 66 73 0
2 70 6 8 10 12 14 72 73 27 71 0
2 4 6 8 10 28 29 30 31 32 33 34 35 36 37 12 38 39 40 41 42 43 44 45 46 47 48 49 50 51 52 53 54 55 56 57 58 59 60 61 62 63 64 65 14 72 27 0
67 4 6 8 10 12 14 72 73 27 69 0
2 4 6 8 68 10 12 14 73 72 66 0
67 70 6 8 10 12 14 72 27 69 73 0
67 70 6 8 10 12 14 26 27 69 71 0
67 70 74 8 10 12 14 26 27 69 71 0
2 70 74 8 10 12 14 26 27 71 75 0
2 70 74 8 10 12 14 26 66 71 75 0
2 4 74 8 68 10 12 14 26 66 75 0
67 4 74 8 68 10 12 14 26 66 75 0
67 4 74 8 10 12 14 26 27 69 75 0
2 4 74 8 10 12 16 18 19 14 26 27 0
67 4 74 8 10 12 14 72 27 75 73 0
67 4 74 8 10 12 14 72 66 75 73 0
2 4 74 8 10 12 14 72 73 27 75 0
2 4 74 8 10 12 14 72 66 75 73 0
2 70 74 8 10 12 14 72 27 75 73 0
2 70 74 8 10 12 14 72 66 75 73 0
67 70 74 8 10 12 14 72 27 75 73 0
67 70 74 8 10 12 14 26 66 71 75 0
67 70 74 8 10 12 14 72 66 71 75 0
67 70 6 8 76 12 14 26 27 69 71 0
67 70 6 8 76 12 14 72 27 69 71 0
67 4 6 8 76 12 14 72 27 77 73 0
67 4 6 8 76 12 14 26 27 69 77 0
67 4 74 8 76 12 14 26 27 69 77 0
67 4 74 8 76 12 14 72 27 69 77 0
67 70 74 8 76 12 14 26 27 69 77 0
2 70 74 8 76 12 14 26 27 75 77 0
2 70 74 8 76 12 14 72 27 75 77 0
67 70 74 8 76 12 14 72 27 75 77 0
2 4 74 8 76 12 14 72 27 75 77 0
2 4 74 8 76 12 14 26 27 75 77 0
2 70 6 8 10 12 16 18 19 14 26 27 0
2 70 6 8 76 12 14 26 27 71 77 0
2 4 6 8 76 28 29 30 31 32 33 34 35 36 37 38 39 40 41 42 43 44 12 45 46 47 48 49 50 51 52 53 54 55 56 57 58 59 60 61 62 63 64 65 14 26 27 0
2 4 6 8 76 12 14 72 73 27 77 0
2 70 6 8 76 12 14 72 27 77 73 0
67 70 6 8 76 12 14 72 66 77 73 0
67 70 74 8 76 12 14 72 66 77 73 0
2 70 74 8 76 12 14 72 66 77 73 0
2 4 74 8 76 12 14 72 66 77 73 0
2 70 6 8 76 12 14 72 66 77 73 0
2 4 6 8 76 12 14 72 66 77 73 0
67 4 6 8 76 12 14 72 66 77 73 0
67 4 6 8 68 76 12 14 26 66 69 0
67 4 74 8 68 76 12 14 26 66 69 0
67 4 74 8 68 76 12 14 72 66 69 0
67 70 74 8 68 76 12 14 26 66 69 0
2 70 74 8 76 12 14 26 66 75 77 0
2 4 74 8 76 12 14 26 66 75 77 0
67 70 6 8 76 12 14 26 66 71 77 0
2 70 6 8 76 12 14 26 66 71 77 0
2 70 6 8 68 10 12 14 26 66 71 0
2 4 6 8 68 76 12 14 26 66 77 0
2 70 6 8 10 78 14 26 27 71 79 0
67 70 6 8 10 78 14 26 27 71 79 0
67 4 6 8 10 78 14 26 27 69 79 0
67 4 74 8 10 78 14 26 27 69 79 0
67 4 74 8 10 78 14 26 66 69 79 0
67 4 6 8 10 78 14 26 66 69 79 0
2 4 6 8 68 10 78 14 26 66 79 0
2 4 74 8 68 10 78 14 26 66 79 0
2 4 6 8 10 78 16 18 19 14 26 27 0
2 70 6 8 10 78 14 26 66 71 79 0
2 70 74 8 10 78 14 26 66 71 79 0
2 70 74 8 76 78 14 26 66 71 79 0
67 70 74 8 76 78 14 26 66 71 79 0
67 70 6 8 76 78 14 26 66 71 79 0
67 70 6 8 10 78 14 26 66 71 79 0
67 4 6 8 68 76 78 14 26 66 69 0
2 4 6 8 76 78 14 26 66 77 79 0
2 70 6 8 76 78 14 26 66 77 79 0
2 4 74 8 76 78 14 26 66 77 79 0
67 4 74 8 76 78 14 26 66 77 79 0
67 4 74 8 76 78 14 26 27 77 79 0
67 4 6 8 76 78 14 26 27 77 79 0
67 70 74 8 76 78 14 26 27 77 79 0
67 70 6 8 76 78 14 26 27 77 79 0
2 70 6 8 76 78 14 26 27 77 79 0
2 4 6 8 76 78 14 26 27 77 79 0
67 70 6 8 76 78 80 26 27 77 79 0
67 70 74 8 76 78 80 26 27 77 79 0
2 70 74 8 76 78 80 26 27 77 79 0
2 4 74 8 76 78 80 26 27 77 79 0
2 70 74 8 76 78 14 26 27 77 79 0
2 70 6 8 76 78 80 26 27 77 79 0
2 4 6 8 76 78 80 26 27 77 79 0
2 4 6 8 76 78 80 26 66 77 79 0
2 70 6 8 76 78 80 26 66 77 79 0
2 4 6 8 68 76 12 80 26 66 81 0
2 4 74 8 68 76 12 80 26 66 81 0
2 70 6 8 68 76 12 80 26 66 81 0
2 70 74 8 68 76 12 80 26 66 81 0
2 70 74 8 76 12 80 26 27 77 81 0
2 70 6 8 76 12 80 26 27 77 81 0
2 70 74 8 76 78 80 26 66 77 81 0
2 4 74 8 76 78 80 26 66 77 81 0
2 4 74 8 76 78 14 26 27 77 79 0
2 4 74 8 76 12 80 26 27 77 81 0
2 4 74 82 76 12 80 26 66 77 81 0
2 70 74 82 76 12 80 26 66 77 81 0
2 4 6 82 76 12 80 26 66 77 81 0
2 4 6 82 76 12 80 26 27 77 81 0
2 4 6 8 76 12 80 26 27 81 77 0
2 4 6 82 76 78 80 26 27 77 81 0
2 4 74 82 76 78 80 26 27 77 81 0
2 70 74 82 76 78 80 26 27 77 81 0
2 70 74 82 76 12 80 26 27 77 81 0
2 4 74 82 76 12 80 26 27 77 81 0
2 70 6 82 76 12 80 26 27 77 81 0
2 70 6 82 76 78 80 26 27 77 81 0
2 70 6 82 76 78 80 26 66 77 81 0
2 70 6 82 76 12 80 26 66 77 81 0
2 70 6 82 76 12 80 72 66 77 81 0
2 70 6 82 76 78 80 72 66 77 81 0
2 70 6 8 76 78 80 72 66 77 81 0
2 70 6 8 76 78 80 72 27 77 81 0
2 70 6 82 76 78 80 72 27 77 81 0
2 70 6 82 76 12 80 72 27 77 81 0
2 70 6 8 76 12 80 72 27 77 81 0
2 70 6 8 76 12 80 72 66 77 81 0
2 70 6 8 10 12 80 72 66 81 73 0
2 70 6 82 10 12 80 72 66 81 73 0
2 70 6 8 68 10 12 80 26 66 81 0
2 70 6 82 68 10 12 80 26 66 81 0
2 70 6 82 10 12 80 26 27 83 81 0
2 70 6 8 10 12 80 26 27 71 81 0
2 70 6 8 10 12 80 72 27 71 81 0
2 70 6 82 10 12 80 72 27 71 81 0
2 70 6 82 10 78 80 72 66 71 81 0
2 70 6 82 10 78 80 72 27 71 81 0
2 70 6 82 10 78 80 26 27 71 81 0
2 70 6 82 10 78 80 26 66 71 81 0
2 70 6 8 10 78 80 72 27 71 81 0
67 70 6 8 10 78 80 72 27 71 81 0
67 70 6 8 10 12 80 72 27 71 81 0
67 70 6 8 10 78 80 26 27 71 81 0
67 70 6 8 10 12 80 26 27 71 81 0
2 70 6 8 10 78 80 26 27 71 81 0
67 70 6 82 10 78 80 26 27 71 81 0
67 70 6 82 10 78 80 72 27 71 81 0
67 70 6 82 10 12 80 72 27 71 81 0
67 70 6 82 76 12 80 72 27 71 81 0
67 70 6 82 76 12 80 26 27 71 81 0
67 70 6 82 10 12 80 26 27 71 81 0
67 70 6 8 76 12 80 26 27 71 81 0
67 70 6 82 76 78 80 26 27 71 81 0
67 70 6 82 76 78 80 72 27 71 81 0
67 70 6 8 76 78 80 72 27 71 81 0
67 70 6 8 76 12 80 72 27 71 81 0
2 70 74 8 10 78 80 72 27 71 81 0
2 70 74 82 10 78 80 72 27 71 81 0
2 70 74 82 10 12 80 72 27 71 81 0
2 70 74 8 10 12 80 72 27 71 81 0
67 70 74 82 10 12 80 72 27 71 81 0
67 70 74 82 10 78 80 72 27 71 81 0
67 70 74 8 10 78 80 72 27 71 81 0
67 70 74 8 10 12 80 72 27 71 81 0
2 70 74 82 10 78 80 26 27 71 81 0
2 70 74 82 10 78 14 26 27 83 79 0
67 70 74 82 10 78 14 26 27 83 79 0
2 70 74 8 10 78 14 26 27 71 79 0
2 70 74 8 10 78 80 26 27 71 79 0
2 70 74 8 10 78 14 72 27 71 79 0
2 70 74 82 10 78 14 72 27 71 79 0
67 70 74 82 10 78 14 72 27 71 79 0
67 70 74 82 10 78 80 26 27 71 79 0
67 70 74 8 10 78 80 26 27 71 79 0
67 4 74 8 10 78 80 26 27 79 81 0
67 4 6 8 10 78 80 26 27 79 81 0
67 4 6 82 10 78 80 26 27 79 81 0
2 4 6 82 10 78 80 26 27 79 81 0
2 4 74 82 10 78 80 26 27 79 81 0
67 4 74 82 10 78 80 26 27 79 81 0
2 4 74 8 10 78 80 26 27 79 81 0
2 4 6 8 10 78 80 26 27 79 81 0
2 70 6 82 10 78 14 26 27 71 83 0
67 70 6 82 10 78 14 26 27 71 83 0
2 4 6 82 10 78 14 26 27 83 79 0
2 4 74 82 10 78 14 26 27 83 79 0
67 4 74 82 10 78 14 26 27 83 79 0
67 4 6 82 10 78 14 26 27 83 79 0
2 4 74 8 10 78 14 26 27 75 79 0
67 70 74 8 10 78 14 26 27 75 79 0
67 70 74 8 10 78 14 26 66 75 79 0
67 70 74 8 10 78 80 26 66 75 79 0
2 70 74 8 10 78 80 26 66 75 79 0
2 70 74 82 10 78 80 26 66 75 79 0
2 4 74 8 10 78 80 26 66 75 79 0
67 4 74 8 10 78 80 26 66 75 79 0
67 4 74 82 10 78 80 26 66 75 79 0
2 4 74 82 10 78 80 26 66 75 79 0
67 70 74 82 10 78 80 26 66 75 79 0
67 70 74 82 10 78 14 26 66 75 79 0
2 70 74 82 10 78 14 26 66 75 79 0
2 4 74 82 10 78 14 26 66 75 79 0
67 4 74 82 10 78 14 26 66 75 79 0
67 4 74 8 76 78 80 26 66 75 79 0
67 4 74 8 76 78 80 26 27 75 79 0
67 4 74 8 76 78 80 72 27 75 79 0
67 4 74 82 76 78 80 72 27 75 79 0
67 4 74 8 76 78 80 72 66 75 79 0
67 4 74 82 76 78 80 72 66 75 79 0
67 4 74 82 10 78 80 72 66 75 79 0
67 4 74 8 10 78 80 72 66 75 79 0
67 4 74 82 76 78 80 26 66 75 79 0
67 4 74 82 76 78 80 26 27 75 79 0
67 4 74 82 10 78 80 72 27 75 79 0
67 4 74 82 10 12 80 72 27 69 83 0
67 4 74 82 10 12 14 72 27 69 83 0
67 4 74 82 10 12 14 72 66 69 83 0
67 4 74 82 76 12 14 72 27 69 83 0
67 4 74 82 76 12 80 72 27 69 83 0
67 4 74 82 76 78 14 72 27 69 83 0
67 4 74 82 10 78 14 72 27 69 83 0
67 4 74 82 10 78 14 72 66 69 83 0
67 4 6 82 10 78 14 72 66 69 83 0
67 4 6 82 76 78 14 72 66 69 83 0
67 4 6 82 10 12 14 72 66 69 83 0
67 4 6 82 10 12 14 72 27 69 83 0
67 4 6 82 10 12 80 72 66 69 83 0
67 4 6 82 10 78 80 72 66 69 83 0
67 4 6 82 10 78 80 72 27 69 83 0
67 4 6 82 10 78 14 72 27 69 83 0
67 4 6 82 10 12 80 72 27 69 83 0
67 4 6 82 76 78 80 72 27 69 83 0
67 4 6 82 76 78 14 72 27 69 83 0
67 4 6 82 76 12 80 72 27 69 83 0
67 4 6 82 76 12 14 72 27 69 83 0
67 4 6 82 76 12 80 72 66 69 83 0
67 4 6 82 76 12 14 72 66 69 83 0
67 4 74 82 76 12 80 72 66 69 83 0
67 4 74 82 10 12 80 72 66 69 83 0
67 4 74 82 76 12 14 72 66 69 83 0
67 4 74 82 76 12 80 26 27 69 83 0
67 4 74 82 76 12 14 26 27 69 83 0
67 4 74 82 76 78 14 26 27 69 83 0
67 4 74 82 76 78 14 26 66 69 83 0
67 4 74 82 76 78 14 72 66 69 83 0
67 4 74 82 76 12 14 26 66 69 83 0
67 4 74 82 76 12 80 26 66 69 83 0
67 4 6 82 76 12 80 26 27 69 83 0
67 4 6 82 76 12 80 26 66 69 83 0
67 4 6 82 10 12 80 26 27 69 83 0
67 4 6 82 10 12 14 26 27 69 83 0
67 4 6 82 76 12 14 26 27 69 83 0
67 4 74 82 10 12 14 26 27 69 83 0
67 4 6 82 76 78 14 26 27 69 83 0
67 4 6 82 76 78 80 26 27 69 83 0
67 4 6 82 76 78 80 72 66 69 83 0
67 4 6 82 76 78 80 26 66 69 83 0
67 4 6 82 76 78 14 26 66 69 83 0
67 4 6 82 76 12 14 26 66 69 83 0
67 4 74 82 10 12 80 26 66 69 83 0
67 4 74 82 10 12 80 26 27 69 83 0
67 4 6 82 10 12 80 26 66 69 83 0
67 4 6 82 10 12 14 26 66 69 83 0
67 4 74 82 10 12 14 26 66 69 83 0
67 4 6 82 10 78 14 26 66 69 83 0
2 4 6 82 68 10 78 14 72 66 73 0
2 4 6 82 68 76 78 14 72 66 73 0
2 4 6 82 76 78 14 26 66 83 77 0
2 4 6 82 10 78 14 26 66 83 79 0
2 4 6 82 68 10 12 14 26 66 83 0
2 4 6 82 68 76 12 14 26 66 83 0
2 4 6 82 68 76 12 14 72 66 83 0
2 4 6 82 76 78 14 72 27 79 73 0
2 4 6 82 10 78 14 72 27 79 73 0
2 4 6 82 76 78 14 26 27 83 77 0
2 4 6 82 76 78 80 72 27 83 77 0
2 4 6 82 10 78 80 72 27 79 73 0
2 4 6 82 10 78 80 72 66 79 73 0
2 4 6 82 68 10 12 80 72 66 73 0
2 4 6 82 68 76 12 80 72 66 73 0
2 4 6 82 68 10 12 80 26 66 81 0
2 4 6 82 68 10 78 80 26 66 81 0
2 4 6 82 10 12 80 26 27 83 81 0
2 4 6 82 76 78 80 26 66 83 81 0
2 4 6 82 76 78 80 72 66 83 81 0
2 4 6 82 76 12 14 72 27 77 73 0
2 4 6 82 76 12 14 26 27 83 77 0
2 4 6 82 76 12 80 72 27 83 77 0
2 4 74 82 68 10 78 80 72 66 73 0
2 4 74 82 10 78 80 72 27 79 73 0
2 4 74 82 10 78 14 72 66 79 73 0
2 4 74 82 76 78 14 72 66 79 73 0
2 4 74 82 10 78 14 72 27 79 73 0
2 4 74 82 76 78 14 72 27 79 73 0
2 4 74 82 76 12 14 72 27 83 73 0
2 4 74 82 76 12 14 72 66 83 73 0
2 4 74 82 76 12 80 72 66 83 73 0
2 4 74 82 76 78 80 72 66 83 73 0
2 4 74 82 76 12 80 72 27 83 73 0
2 4 74 82 76 78 80 72 27 83 73 0
2 4 6 82 10 12 80 72 27 83 73 0
2 4 6 82 10 12 14 72 66 83 73 0
2 4 6 82 10 12 14 72 73 27 83 0
2 4 74 82 10 12 14 72 66 83 73 0
2 4 74 82 10 12 14 72 27 83 73 0
2 4 74 82 68 76 78 14 26 66 75 0
2 4 74 82 68 76 78 80 26 66 75 0
67 4 6 82 68 10 78 80 26 66 69 0
67 70 6 82 68 10 12 80 26 66 69 0
67 70 6 82 68 10 78 80 26 66 69 0
67 70 6 82 68 76 78 80 26 66 69 0
67 70 6 82 68 76 12 80 26 66 69 0
67 70 6 8 68 76 78 80 26 66 69 0
67 70 6 8 68 76 12 80 26 66 69 0
67 4 6 8 68 76 78 80 26 66 69 0
67 4 6 8 68 76 12 80 26 66 69 0
67 4 6 8 76 12 80 26 27 69 81 0
67 4 6 8 76 78 80 26 27 69 81 0
67 4 6 8 10 12 80 26 66 69 81 0
2 4 6 8 68 10 12 80 26 81 66 0
2 4 6 8 10 12 16 18 19 80 26 27 0
67 4 6 8 10 12 16 18 19 80 26 27 0
2 4 6 8 68 10 78 80 26 66 81 0
2 4 6 82 10 12 16 18 19 14 26 27 0
2 4 74 82 10 12 14 26 66 75 83 0
2 4 74 82 10 12 80 72 66 75 83 0
2 4 74 82 10 12 80 72 27 75 83 0
2 4 74 82 10 12 80 26 27 75 83 0
2 4 74 82 10 12 14 26 27 75 83 0
2 4 74 82 10 12 80 26 66 75 83 0
67 4 74 8 68 76 78 14 72 66 73 0
67 4 74 8 76 78 14 72 27 79 73 0
67 4 74 8 76 12 80 72 66 75 81 0
2 4 74 8 76 12 80 72 66 75 81 0
2 4 74 8 76 12 80 72 27 75 81 0
67 4 74 8 76 12 80 72 27 75 81 0
2 4 74 8 76 78 80 72 66 75 81 0
2 4 74 8 76 78 14 72 66 79 73 0
2 4 74 8 76 78 14 72 27 79 73 0
2 4 74 8 76 78 80 72 27 79 73 0
2 4 74 82 76 78 14 26 27 77 79 0
2 4 74 82 76 12 14 26 27 83 77 0
2 4 74 82 76 12 14 26 66 83 77 0
2 4 74 8 10 12 80 72 27 81 73 0
2 4 74 8 10 12 80 26 27 75 81 0
2 4 6 8 10 12 80 72 73 81 27 0
67 4 6 8 10 12 80 72 27 81 73 0
67 4 74 8 10 12 80 72 27 81 73 0
67 4 6 8 76 12 80 72 27 81 73 0
67 4 74 8 10 12 80 26 27 69 75 0
67 70 74 8 10 12 80 26 27 69 75 0
2 70 74 8 10 12 80 26 27 75 81 0
67 70 74 8 76 12 80 72 27 75 81 0
67 70 74 8 76 12 80 26 27 75 81 0
2 70 74 8 76 12 80 72 27 75 81 0
67 4 74 8 76 12 80 26 27 75 81 0
67 70 74 82 76 12 80 26 27 75 81 0
2 70 74 82 10 12 80 26 27 75 81 0
67 70 74 82 10 12 80 26 27 75 81 0
2 70 74 82 76 12 80 72 27 75 81 0
67 70 74 82 76 12 80 72 27 75 81 0
2 4 6 8 76 12 80 72 27 81 73 0
67 4 6 8 76 12 80 72 66 81 73 0
2 4 6 8 76 12 80 72 66 81 73 0
67 4 74 8 76 12 80 26 66 75 81 0
67 70 74 8 76 12 80 72 66 75 81 0
67 70 74 82 76 12 80 72 66 75 81 0
67 70 74 82 76 12 80 26 66 75 81 0
67 70 74 8 76 12 80 26 66 75 81 0
2 70 74 82 76 12 80 72 66 75 81 0
2 70 74 8 76 12 80 72 66 75 81 0
2 70 74 82 10 12 80 72 66 75 81 0
2 70 74 82 10 12 80 26 66 75 81 0
2 70 74 8 10 12 80 72 66 75 81 0
2 70 74 8 10 12 80 26 66 75 81 0
67 70 74 8 10 12 80 26 66 75 81 0
67 70 74 82 10 12 80 26 66 75 81 0
67 70 74 82 10 12 80 72 66 75 81 0
67 70 74 8 10 12 80 72 66 75 81 0
67 4 74 8 10 12 80 72 66 75 81 0
67 4 74 8 10 12 80 26 66 75 81 0
2 4 74 8 10 12 80 26 66 75 81 0
2 70 6 8 10 78 80 26 66 71 81 0
67 70 6 8 10 78 80 26 66 71 81 0
67 4 6 8 10 78 80 26 66 79 81 0
67 70 6 8 68 10 12 80 26 66 81 0
67 70 74 82 10 12 14 26 66 71 83 0
2 70 74 82 10 12 14 26 66 71 83 0
2 70 6 82 10 12 14 26 66 71 83 0
2 70 6 82 10 78 14 26 66 71 83 0
2 4 74 8 68 10 12 80 72 66 73 0
2 4 74 8 68 10 78 80 72 66 73 0
2 4 74 8 10 78 80 72 27 79 81 0
2 4 6 8 10 78 80 72 27 79 81 0
67 4 6 8 10 78 80 72 27 79 81 0
67 4 6 8 10 78 80 72 66 79 81 0
2 4 6 8 10 78 80 72 66 79 81 0
67 4 6 8 10 12 80 72 66 69 81 0
2 4 6 8 68 10 12 80 72 66 73 0
67 4 74 8 10 78 80 72 27 69 73 0
67 70 74 8 76 78 80 72 27 69 73 0
2 70 74 8 76 78 80 72 27 75 73 0
2 70 74 8 76 78 80 72 66 75 73 0
2 70 74 8 10 78 80 72 66 75 73 0
2 70 74 82 76 78 80 72 66 75 73 0
67 70 74 82 76 78 80 72 66 75 73 0
67 70 74 82 76 78 80 72 27 75 73 0
2 70 74 82 76 78 80 72 27 75 73 0
67 70 74 8 76 78 80 72 66 75 73 0
67 70 74 8 76 78 14 72 66 75 73 0
67 70 6 8 68 76 78 14 72 66 73 0
2 70 6 8 68 76 78 14 72 66 73 0
2 70 6 8 76 78 14 72 27 77 73 0
2 70 74 8 76 78 14 72 27 77 73 0
2 70 74 8 76 78 14 72 66 77 73 0
67 70 6 8 76 78 14 72 27 77 73 0
67 70 6 8 76 78 80 72 66 77 73 0
67 70 6 8 76 12 80 72 66 77 73 0
67 4 6 8 76 78 80 72 66 77 73 0
67 4 6 8 76 78 14 72 66 77 73 0
67 70 74 8 68 76 78 80 26 66 81 0
67 70 74 82 68 76 78 80 26 66 81 0
67 70 74 82 76 78 14 26 66 71 83 0
67 70 74 82 76 78 14 72 66 71 83 0
2 70 74 82 76 78 80 26 66 71 83 0
67 70 74 82 76 78 80 26 27 71 83 0
67 70 74 82 76 78 14 26 27 71 83 0
67 70 6 82 76 78 14 26 66 71 83 0
67 70 6 82 76 78 14 72 66 71 83 0
67 70 6 82 76 78 14 72 27 71 83 0
67 70 6 82 76 78 14 26 27 71 83 0
67 70 74 82 76 78 14 72 27 71 83 0
67 70 74 8 76 78 14 72 27 75 79 0
67 70 74 8 10 78 80 72 66 75 79 0
67 70 74 82 10 78 80 72 66 75 79 0
67 70 74 8 10 78 14 72 66 75 79 0
67 70 74 82 10 78 14 72 66 75 79 0
67 4 74 8 10 78 14 72 66 75 79 0
67 4 74 8 10 78 14 72 27 75 79 0
67 70 74 8 10 78 14 72 27 75 79 0
67 70 6 8 10 78 14 72 27 79 73 0
67 70 6 82 10 78 14 72 27 79 73 0
67 70 74 82 10 12 14 26 27 75 83 0
67 70 74 82 10 12 14 72 27 75 83 0
67 70 74 82 10 12 14 72 66 75 83 0
67 70 6 82 68 10 12 14 26 66 71 0
67 70 6 82 68 10 78 14 26 66 71 0
67 70 6 82 10 12 14 26 27 71 83 0
67 70 6 82 10 12 14 72 66 71 83 0
67 70 6 82 10 12 14 72 27 71 83 0
67 70 6 82 10 78 14 72 66 71 83 0
67 70 6 8 68 10 78 14 72 66 73 0
67 4 6 8 68 10 78 14 72 66 73 0
2 4 6 8 68 76 78 14 72 66 73 0
2 70 6 82 68 76 78 14 72 66 73 0
2 70 6 82 76 78 14 72 27 79 73 0
2 70 6 82 10 78 14 72 27 79 73 0
2 70 6 82 76 78 14 26 27 77 79 0
2 70 6 82 76 78 14 26 66 77 79 0
2 70 6 8 68 10 78 14 72 66 73 0
2 70 6 8 10 78 14 72 27 79 73 0
2 70 6 82 10 78 14 72 66 79 73 0
2 70 6 82 76 12 14 72 66 83 73 0
2 70 6 82 76 12 14 72 27 83 73 0
2 70 6 82 68 76 12 14 26 66 71 0
2 70 6 82 76 12 14 26 27 83 77 0
2 4 6 8 76 78 14 72 27 77 79 0
2 4 6 8 10 78 14 72 73 27 79 0
2 70 6 82 10 12 14 72 27 83 73 0
2 70 6 82 10 12 14 26 27 71 83 0
2 4 6 8 68 10 78 14 72 66 73 0
2 4 6 8 76 78 80 72 27 77 81 0
2 4 6 8 76 78 80 72 66 77 81 0
67 70 6 82 76 78 80 72 66 77 81 0
2 70 74 82 76 78 14 72 66 75 77 0
2 70 74 82 76 78 14 72 27 75 77 0
2 70 74 82 76 12 14 72 66 75 77 0
2 70 74 82 76 12 14 26 66 75 77 0
2 70 74 82 76 12 14 26 27 75 77 0
2 70 74 82 76 78 14 26 27 75 77 0
2 70 74 82 76 78 14 26 66 75 77 0
2 4 74 8 10 78 14 72 66 79 73 0
2 70 74 8 10 78 14 72 66 79 73 0
2 4 74 8 10 78 14 72 27 79 73 0
2 70 74 82 10 78 14 72 66 79 73 0
2 70 74 82 68 10 12 14 72 66 73 0
2 70 74 82 10 12 14 72 27 75 83 0
67 70 6 8 10 12 80 72 66 69 81 0
67 70 6 8 10 78 80 72 66 69 81 0
2 70 6 8 68 10 78 80 72 66 73 0
2 70 74 82 10 12 14 26 27 75 83 0
67 70 74 82 76 12 14 26 27 75 83 0
67 70 74 82 76 12 14 26 66 75 83 0
67 70 74 82 76 12 14 72 66 75 83 0
67 70 74 82 76 12 14 72 27 75 83 0
2 70 74 82 76 12 14 72 27 75 83 0
67 70 6 82 76 12 14 72 27 69 77 0
67 70 6 82 76 12 80 72 66 69 77 0
67 70 6 82 68 10 12 80 72 66 73 0
67 70 6 82 68 10 78 80 72 66 73 0
2 70 74 82 68 10 78 80 72 66 73 0
67 70 6 82 76 12 14 26 66 69 77 0
67 70 6 82 76 12 14 72 66 69 77 0
2 70 6 82 68 10 12 14 72 66 73 0
67 4 6 8 76 78 14 72 27 77 73 0
67 70 6 82 76 12 14 26 27 83 77 0
67 4 6 8 76 78 80 72 27 77 81 0
67 4 6 8 10 78 14 72 27 69 73 0
w 15 0.757000
w 17 0.757000
w 13 0.757000
w 11 0.757000
w 9 0.757000
w 7 0.757000
w 5 0.757000
w 3 0.757000
w 1 0.757000
w 68 -1.000000
w 28 -1.000000
w 29 -1.000000
w 16 -1.000000
w 30 -1.000000
w 31 -1.000000
w 32 -1.000000
w 33 -1.000000
w 34 -1.000000
w 35 -1.000000
w 36 -1.000000
w 37 -1.000000
w 18 -1.000000
w 38 -1.000000
w 39 -1.000000
w 40 -1.000000
w 41 -1.000000
w 42 -1.000000
w 43 -1.000000
w 44 -1.000000
w 19 -1.000000
w 45 -1.000000
w 46 -1.000000
w 47 -1.000000
w 48 -1.000000
w 20 -1.000000
w 49 -1.000000
w 50 -1.000000
w 51 -1.000000
w 52 -1.000000
w 53 -1.000000
w 54 -1.000000
w 21 -1.000000
w 55 -1.000000
w 56 -1.000000
w 57 -1.000000
w 58 -1.000000
w 59 -1.000000
w 22 -1.000000
w 60 -1.000000
w 61 -1.000000
w 62 -1.000000
w 23 -1.000000
w 63 -1.000000
w 64 -1.000000
w 24 -1.000000
w 65 -1.000000
w 25 -1.000000
w 73 -1.000000
w 81 -1.000000
w 79 -1.000000
w 77 -1.000000
w 83 -1.000000
w 75 -1.000000
w 71 -1.000000
w 69 -1.000000
w 27 -1.000000
w 66 -1.000000
w 26 -1.000000
w 72 -1.000000
w 14 -1.000000
w 80 -1.000000
w 12 -1.000000
w 78 -1.000000
w 10 -1.000000
w 76 -1.000000
w 8 -1.000000
w 82 -1.000000
w 6 -1.000000
w 74 -1.000000
w 4 -1.000000
w 70 -1.000000
w 2 -1.000000
w 67 -1.000000
